NAME          COPTPROB
OBJSENSE
  MIN
ROWS
 N  __OBJ___
 L  C4      
 L  C21     
 L  C42     
 L  C47     
 L  C54     
 L  C61     
 L  C69     
 L  C94     
 L  C101    
 L  C103    
 L  C104    
 L  C160    
 L  C161    
 L  C197    
COLUMNS
    MARKER    'MARKER'                 'INTORG'
    x40       __OBJ___  6
    x40       C104      -1
    x101      __OBJ___  22
    x101      C4        -1
    x101      C104      -1
    x503      __OBJ___  100
    x503      C21       -1
    x503      C94       -1
    x532      __OBJ___  111
    x532      C21       -1
    x532      C197      -1
    x673      __OBJ___  109
    x673      C21       -1
    x673      C103      -1
    x934      __OBJ___  91
    x934      C69       -1
    x934      C160      -1
    x1063     __OBJ___  57
    x1063     C4        -1
    x1063     C61       -1
    x1159     __OBJ___  32
    x1159     C42       -1
    x1216     __OBJ___  111
    x1216     C21       -1
    x1216     C47       -1
    x1379     __OBJ___  74
    x1379     C161      -1
    x2095     __OBJ___  2
    x2095     C94       -1
    x2095     C101      -1
    x2284     __OBJ___  61
    x2284     C61       -1
    x2284     C160      -1
    x2338     __OBJ___  19
    x2338     C54       -1
    x2338     C101      -1
    x2515     __OBJ___  57
    x2515     C47       -1
    x2515     C54       -1
    x2644     __OBJ___  45
    x2644     C47       -1
    x2657     __OBJ___  100
    x2657     C42       -1
    x2657     C161      -1
    x2755     __OBJ___  1
    x2755     C101      -1
    x2765     __OBJ___  47
    x2765     C42       -1
    x2765     C69       -1
    x2840     __OBJ___  76
    x2840     C161      -1
    x2840     C197      -1
    x2921     __OBJ___  23
    x2921     C103      -1
    x2921     C104      -1
    MARKER    'MARKER'                 'INTEND'
RHS
    RHS       __OBJ___  -4397
    RHS       C4        -1
    RHS       C21       -1
    RHS       C42       -1
    RHS       C47       -1
    RHS       C54       -1
    RHS       C61       -1
    RHS       C69       -1
    RHS       C94       -1
    RHS       C101      -1
    RHS       C103      -1
    RHS       C104      -1
    RHS       C160      -1
    RHS       C161      -1
    RHS       C197      -1
BOUNDS
 UP BOUND     x40       1
 UP BOUND     x101      1
 UP BOUND     x503      1
 UP BOUND     x532      1
 UP BOUND     x673      1
 UP BOUND     x934      1
 UP BOUND     x1063     1
 UP BOUND     x1159     1
 UP BOUND     x1216     1
 UP BOUND     x1379     1
 UP BOUND     x2095     1
 UP BOUND     x2284     1
 UP BOUND     x2338     1
 UP BOUND     x2515     1
 UP BOUND     x2644     1
 UP BOUND     x2657     1
 UP BOUND     x2755     1
 UP BOUND     x2765     1
 UP BOUND     x2840     1
 UP BOUND     x2921     1
ENDATA
